0 4311
2401 4199
4802 4094
7203 4008
9604 3955
12005 3904
14406 3846
16807 3796
19208 3757
21609 3730
24010 3706
26411 3687
28812 3665
31213 3640
33614 3619
36015 3609
38416 3603
40817 3602
43218 3601
45619 3590
48020 3574
50421 3566
52822 3548
55223 3545
57624 3543
60025 3541
62426 3537
64827 3533
